NAME          SAMPLE
ROWS
 N  COST
 L  C1
 G  C2
COLUMNS
    X1        COST              -1.0   C1                 1.0
    X1        C2                 1.0
    X2        COST              -3.0   C1                 1.0
    X2        C2                 1.0
RHS
    RHS       C1                 1.5   C2                 0.5
BOUNDS
 UP BOUND     X1                 1.0
 UP BOUND     X2                 1.0
ENDATA
